0	13	403	0	200
1	277	498	0	200
2	100	130	0	200
3	307	15	0	200
4	109	90	0	200
5	232	100	0	200
6	181	127	0	200
7	115	29	0	200
8	473	328	0	200
9	249	271	0	200
10	237	450	0	200
11	309	259	0	200
12	117	436	0	200
13	434	422	0	200
14	493	347	0	200
15	434	168	0	200
16	287	251	0	200
17	163	293	0	200
18	168	351	0	200
19	408	227	0	200
20	282	286	0	200
21	152	291	0	200
22	457	89	0	200
23	163	77	0	200
24	128	404	0	200
